\ LP format - for model browsing. Use MPS format to capture full model detail.
Maximize
  7 x_1 + 6 x_2 + 6 x_3 + 4 x_4 + 4 x_5 + x_6 + 9 x_7 + 5 x_8 + 2 x_9
   + 10 x_10 + 6 x_11 + 10 x_12 + 3 x_13 + 6 x_14 + 2 x_15 + 7 x_16
   + 9 x_17 + 4 x_18 + 7 x_19 + 10 x_20
Subject To
 C_1: 2 x_1 + 9 x_3 + 4 x_4 + 7 x_6 + 5 x_7 + 9 x_9 + x_10 + 4 x_11 + x_12
   + 6 x_13 + 6 x_14 + 4 x_16 + 6 x_17 + 3 x_18 + 5 x_19 + 9 x_20 <= 40
 C_2: 6 x_1 + 4 x_2 + 8 x_4 + 3 x_5 + 6 x_7 + 10 x_8 + 10 x_10 + x_11
   + 6 x_15 + 8 x_16 + 2 x_18 + 6 x_20 <= 35
 C_3: 3 x_1 + 4 x_2 + 2 x_4 + 9 x_7 + 3 x_13 + 2 x_14 + 8 x_16 + 10 x_19
   + 9 x_20 <= 25
 C_4: 7 x_2 + x_3 + 6 x_4 + 4 x_5 + 7 x_6 + 2 x_11 + 3 x_12 + 7 x_14 + x_15
   + 2 x_18 + x_19 <= 20
 C_5: x_2 + x_5 + 8 x_11 + 5 x_12 + 5 x_13 + 6 x_16 + x_18 + 9 x_19 <= 18
 C_6: 10 x_1 + 6 x_7 + 3 x_9 + 4 x_10 + 3 x_12 + 10 x_15 + 10 x_16 + 3 x_19
   <= 24
 C_7: x_1 + 9 x_2 + 2 x_5 + 10 x_6 + 2 x_9 + 8 x_10 + 7 x_16 + x_17
   + 2 x_19 + 7 x_20 <= 24
 C_8: 5 x_1 + 6 x_2 + 3 x_4 + 9 x_8 + 5 x_9 + 9 x_10 + 8 x_13 + 10 x_14
   + 2 x_16 + 7 x_17 + 4 x_20 <= 34
 C_9: 3 x_1 + 10 x_2 + 4 x_4 + 8 x_5 + 9 x_6 + x_12 + 4 x_16 + 4 x_18
   <= 21
 C_10: 8 x_1 + x_3 + 7 x_9 + 4 x_11 + 6 x_12 + 3 x_14 + x_18 + 3 x_19
   + 8 x_20 <= 20
Bounds
Binaries
 x_1 x_2 x_3 x_4 x_5 x_6 x_7 x_8 x_9 x_10 x_11 x_12 x_13 x_14 x_15 x_16
 x_17 x_18 x_19 x_20
End
